(set-option :auto-config false)
(set-option :produce-unsat-cores false)
(set-option :smt.mbqi.max_iterations 10000000)
(set-option :smt.relevancy 0)
(declare-fun c0 () Bool)
(declare-fun c1 () Bool)
(declare-fun c2 () Bool)
(define-fun e3 () Bool (not c2))
(declare-fun c4 () Bool)
(define-fun e5 () Bool (not c4))
(declare-fun c6 () Bool)
(define-fun e7 () Bool (not c6))
(declare-fun c8 () Bool)
(define-fun e9 () Bool (not c8))
(declare-fun c10 () Bool)
(define-fun e11 () Bool (not c10))
(declare-fun c12 () Bool)
(define-fun e13 () Bool (not c12))
(declare-fun c14 () Bool)
(define-fun e15 () Bool (not c14))
(declare-fun c16 () Bool)
(define-fun e17 () Bool (not c16))
(declare-fun c18 () Bool)
(define-fun e19 () Bool (not c18))
(declare-fun c20 () Bool)
(define-fun e21 () Bool (not c20))
(declare-fun c22 () Bool)
(define-fun e23 () Bool (not c22))
(declare-fun c24 () Bool)
(define-fun e25 () Bool (not c24))
(declare-fun c26 () Bool)
(define-fun e27 () Bool (not c26))
(define-fun e28 () Bool (and c1 e3 e5 e7 e9 e11 e13 e15 e17 e19 e21 e23 e25 e27))
(define-fun e29 () Bool (not e28))
(define-fun e30 () Bool (not c1))
(declare-fun c31 () Bool)
(define-fun e32 () Bool (not c31))
(define-fun e33 () Bool (and e3 e5 e7 e9 e11 e13 e15 e17 e19 e21 e23 e25 e27 e30 e32))
(define-fun e34 () Bool (not e33))
(define-fun e35 () Bool (and c31 e3 e5 e7 e9 e11 e13 e15 e17 e19 e21 e23 e25 e27 e30 e34))
(define-fun e36 () Bool (or e33 e35))
(define-fun e37 () Bool (and c0 e29 e36))
(define-fun e38 () Bool (not c0))
(define-fun e39 () Bool (and c31 e3 e5 e7 e9 e11 e13 e15 e17 e19 e21 e23 e25 e27 e30))
(define-fun e40 () Bool (not e39))
(define-fun e41 () Bool (and e3 e5 e7 e9 e11 e13 e15 e17 e19 e21 e23 e25 e27 e30 e32 e40))
(define-fun e42 () Bool (or e39 e41))
(define-fun e43 () Bool (and e38 e42))
(define-fun e44 () Bool (or e37 e43))
(define-fun e45 () Bool (and c24 e3 e5 e7 e9 e11 e13 e15 e17 e19 e21 e23))
(define-fun e46 () Bool (not e45))
(define-fun e47 () Bool (and c26 e3 e5 e7 e9 e11 e13 e15 e17 e19 e21 e23 e25))
(define-fun e48 () Bool (not e47))
(define-fun e49 () Bool (and e38 e34 e40 e46 e48))
(define-fun e50 () Bool (not e49))
(define-fun e51 () Bool (and c26 e3 e5 e7 e9 e11 e13 e15 e17 e19 e21 e23 e25 e46))
(define-fun e52 () Bool (or e45 e51))
(define-fun e53 () Bool (and e38 e34 e40 e52))
(define-fun e54 () Bool (not e53))
(define-fun e55 () Bool (and e50 e54))
(define-fun e56 () Bool (and c0 e29 e34 e40))
(define-fun e57 () Bool (not e56))
(define-fun e58 () Bool (and e55 e57))
(define-fun e59 () Bool (and c0 c1 e3 e5 e7 e9 e11 e13 e15 e17 e19 e21 e23 e25 e27))
(define-fun e60 () Bool (not e59))
(define-fun e61 () Bool (and e58 e60))
(define-fun e62 () Bool (not e61))
(define-fun e63 () Bool (or e44 e62))
(assert e63)
(define-fun e64 () Bool (not e44))
(define-fun e65 () Bool (and e61 e64))
(define-fun e66 () Bool (not e65))
(assert e66)
(declare-fun c67 () (_ BitVec 64))
(declare-fun c68 () (_ BitVec 64))
(define-fun e69 () Bool (= c67 c68))
(declare-fun c70 () Bool)
(define-fun e71 () Bool (and c70 c1 e3 e5 e7 e9 e11 e13 e15 e17 e19 e21 e23 e25 e27))
(define-fun e72 () Bool (and e59 e69 e71))
(define-fun e73 () Bool (and c70 e29 e34 e40))
(define-fun e74 () Bool (and e56 e69 e73))
(define-fun e75 () Bool (not c70))
(define-fun e76 () Bool (and e34 e40 e46 e48 e75))
(define-fun e77 () Bool (and e49 e76))
(define-fun e78 () Bool (and e34 e40 e52 e75))
(define-fun e79 () Bool (and e53 e78))
(define-fun e80 () Bool (and c70 e29 e36))
(define-fun e81 () Bool (and e42 e75))
(define-fun e82 () Bool (or e80 e81))
(define-fun e83 () Bool (and e44 e82))
(define-fun e84 () Bool (or e72 e74 e77 e79 e83))
(declare-fun c87 ((_ BitVec 64) (_ BitVec 64)) (_ BitVec 64))
(define-fun e88 ((c85 (_ BitVec 64)) (c86 (_ BitVec 64))) (_ BitVec 64) (c87 c85 c86))
(declare-fun c89 ((_ BitVec 64) (_ BitVec 64)) (_ BitVec 64))
(define-fun e90 ((c85 (_ BitVec 64)) (c86 (_ BitVec 64))) (_ BitVec 64) (c89 c85 c86))
(define-fun e91 ((c85 (_ BitVec 64)) (c86 (_ BitVec 64))) Bool (= (e88 c85 c86) (e90 c85 c86)))
(define-fun e92 ((c85 (_ BitVec 64)) (c86 (_ BitVec 64))) (_ BitVec 64) (_ bv256 64))
(define-fun e93 ((c85 (_ BitVec 64)) (c86 (_ BitVec 64))) Bool (bvult c85 (e92 c85 c86)))
(define-fun e94 ((c85 (_ BitVec 64)) (c86 (_ BitVec 64))) (_ BitVec 64) (_ bv512 64))
(define-fun e95 ((c85 (_ BitVec 64)) (c86 (_ BitVec 64))) Bool (bvult c86 (e94 c85 c86)))
(define-fun e96 ((c85 (_ BitVec 64)) (c86 (_ BitVec 64))) Bool (and (e93 c85 c86) (e95 c85 c86)))
(define-fun e97 ((c85 (_ BitVec 64)) (c86 (_ BitVec 64))) Bool (not (e96 c85 c86)))
(define-fun e98 ((c85 (_ BitVec 64)) (c86 (_ BitVec 64))) Bool (or (e91 c85 c86) (e97 c85 c86)))
(define-fun e99 () Bool (forall ((c85 (_ BitVec 64)) (c86 (_ BitVec 64))) (e98 c85 c86)))
(define-fun e100 () Bool (and e99 e60))
(define-fun e101 () Bool (and (=> c0 c70) (=> c70 c0)))
(define-fun e102 () Bool (and c70 e69))
(define-fun e103 () Bool (and (=> c0 e102) (=> e102 c0)))
(declare-fun c104 () (_ BitVec 64))
(declare-fun c105 () (_ BitVec 64))
(define-fun e106 () Bool (= c104 c105))
(declare-fun c107 () (_ BitVec 64))
(declare-fun c108 () (_ BitVec 64))
(define-fun e109 () Bool (= c107 c108))
(declare-fun c110 () (_ BitVec 64))
(declare-fun c111 () (_ BitVec 64))
(define-fun e112 () Bool (= c110 c111))
(declare-fun c113 () (_ BitVec 64))
(declare-fun c114 () (_ BitVec 64))
(define-fun e115 () Bool (= c113 c114))
(declare-fun c116 () (_ BitVec 64))
(declare-fun c117 () (_ BitVec 64))
(define-fun e118 () Bool (= c116 c117))
(declare-fun c119 () (_ BitVec 64))
(declare-fun c120 () (_ BitVec 64))
(define-fun e121 () Bool (= c119 c120))
(declare-fun c122 () (_ BitVec 64))
(declare-fun c123 () (_ BitVec 64))
(define-fun e124 () Bool (= c122 c123))
(declare-fun c125 () (_ BitVec 64))
(declare-fun c126 () (_ BitVec 64))
(define-fun e127 () Bool (= c125 c126))
(declare-fun c128 () (_ BitVec 64))
(declare-fun c129 () (_ BitVec 64))
(define-fun e130 () Bool (= c128 c129))
(declare-fun c131 () (_ BitVec 64))
(declare-fun c132 () (_ BitVec 64))
(define-fun e133 () Bool (= c131 c132))
(declare-fun c134 () (_ BitVec 64))
(declare-fun c135 () (_ BitVec 64))
(define-fun e136 () Bool (= c134 c135))
(declare-fun c137 () (_ BitVec 64))
(declare-fun c138 () (_ BitVec 64))
(define-fun e139 () Bool (= c137 c138))
(declare-fun c140 () (_ BitVec 64))
(declare-fun c141 () (_ BitVec 64))
(define-fun e142 () Bool (= c140 c141))
(declare-fun c143 () (_ BitVec 64))
(declare-fun c144 () (_ BitVec 64))
(define-fun e145 () Bool (= c143 c144))
(declare-fun c146 () (_ BitVec 64))
(declare-fun c147 () (_ BitVec 64))
(define-fun e148 () Bool (= c146 c147))
(declare-fun c149 () (_ BitVec 64))
(declare-fun c150 () (_ BitVec 64))
(define-fun e151 () Bool (= c149 c150))
(declare-fun c152 () (_ BitVec 64))
(declare-fun c153 () (_ BitVec 64))
(define-fun e154 () Bool (= c152 c153))
(declare-fun c155 () (_ BitVec 64))
(declare-fun c156 () (_ BitVec 64))
(define-fun e157 () Bool (= c155 c156))
(declare-fun c158 () (_ BitVec 64))
(declare-fun c159 () (_ BitVec 64))
(define-fun e160 () Bool (= c158 c159))
(declare-fun c161 () (_ BitVec 64))
(declare-fun c162 () (_ BitVec 64))
(define-fun e163 () Bool (= c161 c162))
(declare-fun c164 () (_ BitVec 64))
(declare-fun c165 () (_ BitVec 64))
(define-fun e166 () Bool (= c164 c165))
(declare-fun c167 () (_ BitVec 64))
(declare-fun c168 () (_ BitVec 64))
(define-fun e169 () Bool (= c167 c168))
(declare-fun c170 () (_ BitVec 64))
(declare-fun c171 () (_ BitVec 64))
(define-fun e172 () Bool (= c170 c171))
(declare-fun c173 () (_ BitVec 64))
(declare-fun c174 () (_ BitVec 64))
(define-fun e175 () Bool (= c173 c174))
(declare-fun c176 () (_ BitVec 64))
(declare-fun c177 () (_ BitVec 64))
(define-fun e178 () Bool (= c176 c177))
(declare-fun c179 () (_ BitVec 64))
(declare-fun c180 () (_ BitVec 64))
(define-fun e181 () Bool (= c179 c180))
(declare-fun c182 () (_ BitVec 64))
(declare-fun c183 () (_ BitVec 64))
(define-fun e184 () Bool (= c182 c183))
(declare-fun c185 () (_ BitVec 64))
(declare-fun c186 () (_ BitVec 64))
(define-fun e187 () Bool (= c185 c186))
(declare-fun c188 () (_ BitVec 64))
(declare-fun c189 () (_ BitVec 64))
(define-fun e190 () Bool (= c188 c189))
(declare-fun c191 () (_ BitVec 64))
(declare-fun c192 () (_ BitVec 64))
(define-fun e193 () Bool (= c191 c192))
(declare-fun c194 () (_ BitVec 64))
(declare-fun c195 () (_ BitVec 64))
(define-fun e196 () Bool (= c194 c195))
(declare-fun c197 () (_ BitVec 64))
(declare-fun c198 () (_ BitVec 64))
(define-fun e199 () Bool (= c197 c198))
(declare-fun c200 () (_ BitVec 64))
(declare-fun c201 () (_ BitVec 64))
(define-fun e202 () Bool (= c200 c201))
(declare-fun c203 () (_ BitVec 64))
(declare-fun c204 () (_ BitVec 64))
(define-fun e205 () Bool (= c203 c204))
(declare-fun c206 () (_ BitVec 64))
(declare-fun c207 () (_ BitVec 64))
(define-fun e208 () Bool (= c206 c207))
(declare-fun c209 () (_ BitVec 64))
(declare-fun c210 () (_ BitVec 64))
(define-fun e211 () Bool (= c209 c210))
(declare-fun c212 () (_ BitVec 64))
(declare-fun c213 () (_ BitVec 64))
(define-fun e214 () Bool (= c212 c213))
(declare-fun c215 () (_ BitVec 64))
(declare-fun c216 () (_ BitVec 64))
(define-fun e217 () Bool (= c215 c216))
(declare-fun c218 () (_ BitVec 64))
(declare-fun c219 () (_ BitVec 64))
(define-fun e220 () Bool (= c218 c219))
(declare-fun c221 () (_ BitVec 64))
(declare-fun c222 () (_ BitVec 64))
(define-fun e223 () Bool (= c221 c222))
(declare-fun c224 () (_ BitVec 64))
(declare-fun c225 () (_ BitVec 64))
(define-fun e226 () Bool (= c224 c225))
(declare-fun c227 () (_ BitVec 64))
(declare-fun c228 () (_ BitVec 64))
(define-fun e229 () Bool (= c227 c228))
(declare-fun c230 () (_ BitVec 64))
(declare-fun c231 () (_ BitVec 64))
(define-fun e232 () Bool (= c230 c231))
(define-fun e233 () Bool (and e109 e112 e115 e118 e121 e124 e127 e130 e133 e136 e139 e142 e145 e148 e151 e154 e157 e160 e163 e166 e169 e172 e175 e178 e181 e184 e187 e190 e193 e196 e199 e202 e205 e208 e211 e214 e217 e220 e223 e226 e229 e232))
(define-fun e234 () Bool (and e106 e233))
(define-fun e235 () Bool (or e38 e234))
(define-fun e236 () (_ BitVec 64) (_ bv1024 64))
(define-fun e237 () Bool (bvult c67 e236))
(define-fun e238 () (_ BitVec 64) (_ bv1 64))
(declare-fun c239 ((_ BitVec 64)) (_ BitVec 64))
(define-fun e240 () (_ BitVec 64) (c239 c67))
(define-fun e241 () Bool (= e238 e240))
(define-fun e242 () Bool (and e237 e241))
(declare-fun c243 ((_ BitVec 64) (_ BitVec 64)) (_ BitVec 64))
(define-fun e244 () (_ BitVec 64) (_ bv2 64))
(define-fun e245 () (_ BitVec 64) (c243 c67 e244))
(define-fun e246 () Bool (= e238 e245))
(define-fun e247 () Bool (and e242 e246))
(declare-fun c248 ((_ BitVec 64)) (_ BitVec 64))
(define-fun e249 () (_ BitVec 64) (c248 c67))
(define-fun e250 () Bool (= e238 e249))
(define-fun e251 () Bool (and e237 e250))
(declare-fun c252 ((_ BitVec 64) (_ BitVec 64)) (_ BitVec 64))
(define-fun e253 () (_ BitVec 64) (c252 c67 e244))
(define-fun e254 () Bool (= e238 e253))
(define-fun e255 () Bool (and e251 e254))
(define-fun e256 () Bool (and (=> e247 e255) (=> e255 e247)))
(define-fun e258 ((c257 (_ BitVec 64))) (_ BitVec 64) (_ bv1024 64))
(define-fun e259 ((c257 (_ BitVec 64))) Bool (bvult c257 (e258 c257)))
(define-fun e260 ((c257 (_ BitVec 64))) (_ BitVec 64) (_ bv0 64))
(define-fun e261 ((c257 (_ BitVec 64))) (_ BitVec 64) (c239 c257))
(define-fun e262 ((c257 (_ BitVec 64))) Bool (= (e260 c257) (e261 c257)))
(define-fun e263 ((c257 (_ BitVec 64))) Bool (and (e259 c257) (e262 c257)))
(define-fun e264 ((c257 (_ BitVec 64))) Bool (not (e263 c257)))
(declare-fun c265 ((_ BitVec 64)) (_ BitVec 64))
(define-fun e266 ((c257 (_ BitVec 64))) (_ BitVec 64) (c265 c257))
(define-fun e267 ((c257 (_ BitVec 64))) Bool (= c67 (e266 c257)))
(define-fun e268 ((c257 (_ BitVec 64))) Bool (and (e259 c257) (e264 c257) (e267 c257)))
(define-fun e269 ((c257 (_ BitVec 64))) (_ BitVec 64) (c248 c257))
(define-fun e270 ((c257 (_ BitVec 64))) Bool (= (e260 c257) (e269 c257)))
(define-fun e271 ((c257 (_ BitVec 64))) Bool (and (e259 c257) (e270 c257)))
(define-fun e272 ((c257 (_ BitVec 64))) Bool (not (e271 c257)))
(declare-fun c273 ((_ BitVec 64)) (_ BitVec 64))
(define-fun e274 ((c257 (_ BitVec 64))) (_ BitVec 64) (c273 c257))
(define-fun e275 ((c257 (_ BitVec 64))) Bool (= c67 (e274 c257)))
(define-fun e276 ((c257 (_ BitVec 64))) Bool (and (e259 c257) (e272 c257) (e275 c257)))
(define-fun e277 ((c257 (_ BitVec 64))) Bool (and (=> (e268 c257) (e276 c257)) (=> (e276 c257) (e268 c257))))
(define-fun e278 ((c257 (_ BitVec 64))) Bool (not (e259 c257)))
(define-fun e279 ((c257 (_ BitVec 64))) Bool (or (e277 c257) (e278 c257)))
(define-fun e280 () Bool (forall ((c257 (_ BitVec 64))) (e279 c257)))
(define-fun e281 ((c257 (_ BitVec 64))) Bool (= (e261 c257) (e269 c257)))
(define-fun e282 ((c257 (_ BitVec 64))) Bool (not (e268 c257)))
(define-fun e283 ((c257 (_ BitVec 64))) Bool (or (e281 c257) (e282 c257)))
(define-fun e284 () Bool (forall ((c257 (_ BitVec 64))) (e283 c257)))
(define-fun e286 ((c257 (_ BitVec 64)) (c285 (_ BitVec 64))) (_ BitVec 64) (c243 c257 c285))
(define-fun e287 ((c257 (_ BitVec 64)) (c285 (_ BitVec 64))) (_ BitVec 64) (c252 c257 c285))
(define-fun e288 ((c257 (_ BitVec 64)) (c285 (_ BitVec 64))) Bool (= (e286 c257 c285) (e287 c257 c285)))
(define-fun e289 ((c257 (_ BitVec 64)) (c285 (_ BitVec 64))) (_ BitVec 64) (_ bv1024 64))
(define-fun e290 ((c257 (_ BitVec 64)) (c285 (_ BitVec 64))) Bool (bvult c257 (e289 c257 c285)))
(define-fun e291 ((c257 (_ BitVec 64)) (c285 (_ BitVec 64))) (_ BitVec 64) (_ bv0 64))
(define-fun e292 ((c257 (_ BitVec 64)) (c285 (_ BitVec 64))) (_ BitVec 64) (c239 c257))
(define-fun e293 ((c257 (_ BitVec 64)) (c285 (_ BitVec 64))) Bool (= (e291 c257 c285) (e292 c257 c285)))
(define-fun e294 ((c257 (_ BitVec 64)) (c285 (_ BitVec 64))) Bool (and (e290 c257 c285) (e293 c257 c285)))
(define-fun e295 ((c257 (_ BitVec 64)) (c285 (_ BitVec 64))) Bool (not (e294 c257 c285)))
(define-fun e296 ((c257 (_ BitVec 64)) (c285 (_ BitVec 64))) (_ BitVec 64) (c265 c257))
(define-fun e297 ((c257 (_ BitVec 64)) (c285 (_ BitVec 64))) Bool (= c67 (e296 c257 c285)))
(define-fun e298 ((c257 (_ BitVec 64)) (c285 (_ BitVec 64))) Bool (and (e290 c257 c285) (e295 c257 c285) (e297 c257 c285)))
(define-fun e299 ((c257 (_ BitVec 64)) (c285 (_ BitVec 64))) (_ BitVec 64) (_ bv512 64))
(define-fun e300 ((c257 (_ BitVec 64)) (c285 (_ BitVec 64))) Bool (bvult c285 (e299 c257 c285)))
(define-fun e301 ((c257 (_ BitVec 64)) (c285 (_ BitVec 64))) Bool (and (e298 c257 c285) (e300 c257 c285)))
(define-fun e302 ((c257 (_ BitVec 64)) (c285 (_ BitVec 64))) Bool (not (e301 c257 c285)))
(define-fun e303 ((c257 (_ BitVec 64)) (c285 (_ BitVec 64))) Bool (or (e288 c257 c285) (e302 c257 c285)))
(define-fun e304 () Bool (forall ((c257 (_ BitVec 64)) (c285 (_ BitVec 64))) (e303 c257 c285)))
(declare-fun c305 ((_ BitVec 64) (_ BitVec 64)) (_ BitVec 64))
(define-fun e306 ((c257 (_ BitVec 64)) (c285 (_ BitVec 64))) (_ BitVec 64) (c305 c257 c285))
(declare-fun c307 ((_ BitVec 64) (_ BitVec 64)) (_ BitVec 64))
(define-fun e308 ((c257 (_ BitVec 64)) (c285 (_ BitVec 64))) (_ BitVec 64) (c307 c257 c285))
(define-fun e309 ((c257 (_ BitVec 64)) (c285 (_ BitVec 64))) Bool (= (e306 c257 c285) (e308 c257 c285)))
(declare-fun c310 ((_ BitVec 64) (_ BitVec 64)) Bool)
(define-fun e311 ((c257 (_ BitVec 64)) (c285 (_ BitVec 64))) Bool (c310 c257 c285))
(declare-fun c312 ((_ BitVec 64) (_ BitVec 64)) Bool)
(define-fun e313 ((c257 (_ BitVec 64)) (c285 (_ BitVec 64))) Bool (c312 c257 c285))
(define-fun e314 ((c257 (_ BitVec 64)) (c285 (_ BitVec 64))) Bool (and (=> (e311 c257 c285) (e313 c257 c285)) (=> (e313 c257 c285) (e311 c257 c285))))
(declare-fun c315 ((_ BitVec 64) (_ BitVec 64)) Bool)
(define-fun e316 ((c257 (_ BitVec 64)) (c285 (_ BitVec 64))) Bool (c315 c257 c285))
(declare-fun c317 ((_ BitVec 64) (_ BitVec 64)) Bool)
(define-fun e318 ((c257 (_ BitVec 64)) (c285 (_ BitVec 64))) Bool (c317 c257 c285))
(define-fun e319 ((c257 (_ BitVec 64)) (c285 (_ BitVec 64))) Bool (and (=> (e316 c257 c285) (e318 c257 c285)) (=> (e318 c257 c285) (e316 c257 c285))))
(declare-fun c320 ((_ BitVec 64) (_ BitVec 64)) (_ BitVec 64))
(define-fun e321 ((c257 (_ BitVec 64)) (c285 (_ BitVec 64))) (_ BitVec 64) (c320 c257 c285))
(declare-fun c322 ((_ BitVec 64) (_ BitVec 64)) (_ BitVec 64))
(define-fun e323 ((c257 (_ BitVec 64)) (c285 (_ BitVec 64))) (_ BitVec 64) (c322 c257 c285))
(define-fun e324 ((c257 (_ BitVec 64)) (c285 (_ BitVec 64))) Bool (= (e321 c257 c285) (e323 c257 c285)))
(define-fun e325 ((c257 (_ BitVec 64)) (c285 (_ BitVec 64))) Bool (and (e309 c257 c285) (e314 c257 c285) (e319 c257 c285) (e324 c257 c285)))
(define-fun e326 ((c257 (_ BitVec 64)) (c285 (_ BitVec 64))) Bool (or (e302 c257 c285) (e325 c257 c285)))
(define-fun e327 () Bool (forall ((c257 (_ BitVec 64)) (c285 (_ BitVec 64))) (e326 c257 c285)))
(define-fun e328 () Bool (and e280 e284 e304 e327))
(define-fun e329 () Bool (not e247))
(define-fun e330 () Bool (or e328 e329))
(define-fun e331 () Bool (and e101 e103 e235 e256 e330))
(define-fun e332 () Bool (and e59 e331))
(define-fun e333 () Bool (or e100 e332))
(define-fun e334 () Bool (and e57 e333))
(define-fun e335 () Bool (and e56 e331))
(define-fun e336 () Bool (or e334 e335))
(define-fun e337 () Bool (and e54 e336))
(declare-fun c338 () (_ BitVec 64))
(declare-fun c339 () (_ BitVec 64))
(define-fun e340 () Bool (= c338 c339))
(declare-fun c341 () (_ BitVec 64))
(declare-fun c342 () (_ BitVec 64))
(define-fun e343 () Bool (= c341 c342))
(declare-fun c344 () (_ BitVec 64))
(declare-fun c345 () (_ BitVec 64))
(define-fun e346 () Bool (= c344 c345))
(declare-fun c347 () (_ BitVec 64))
(declare-fun c348 () (_ BitVec 64))
(define-fun e349 () Bool (= c347 c348))
(declare-fun c350 () (_ BitVec 64))
(declare-fun c351 () (_ BitVec 64))
(define-fun e352 () Bool (= c350 c351))
(declare-fun c353 () (_ BitVec 64))
(declare-fun c354 () (_ BitVec 64))
(define-fun e355 () Bool (= c353 c354))
(declare-fun c356 () (_ BitVec 64))
(declare-fun c357 () (_ BitVec 64))
(define-fun e358 () Bool (= c356 c357))
(declare-fun c359 () (_ BitVec 64))
(declare-fun c360 () (_ BitVec 64))
(define-fun e361 () Bool (= c359 c360))
(declare-fun c362 () (_ BitVec 64))
(declare-fun c363 () (_ BitVec 64))
(define-fun e364 () Bool (= c362 c363))
(declare-fun c365 () (_ BitVec 64))
(declare-fun c366 () (_ BitVec 64))
(define-fun e367 () Bool (= c365 c366))
(declare-fun c368 () (_ BitVec 64))
(declare-fun c369 () (_ BitVec 64))
(define-fun e370 () Bool (= c368 c369))
(declare-fun c371 () (_ BitVec 64))
(declare-fun c372 () (_ BitVec 64))
(define-fun e373 () Bool (= c371 c372))
(declare-fun c374 () (_ BitVec 64))
(declare-fun c375 () (_ BitVec 64))
(define-fun e376 () Bool (= c374 c375))
(declare-fun c377 () (_ BitVec 64))
(declare-fun c378 () (_ BitVec 64))
(define-fun e379 () Bool (= c377 c378))
(declare-fun c380 () (_ BitVec 64))
(declare-fun c381 () (_ BitVec 64))
(define-fun e382 () Bool (= c380 c381))
(declare-fun c383 () (_ BitVec 64))
(declare-fun c384 () (_ BitVec 64))
(define-fun e385 () Bool (= c383 c384))
(declare-fun c386 () (_ BitVec 64))
(declare-fun c387 () (_ BitVec 64))
(define-fun e388 () Bool (= c386 c387))
(declare-fun c389 () (_ BitVec 64))
(declare-fun c390 () (_ BitVec 64))
(define-fun e391 () Bool (= c389 c390))
(declare-fun c392 () (_ BitVec 64))
(declare-fun c393 () (_ BitVec 64))
(define-fun e394 () Bool (= c392 c393))
(declare-fun c395 () (_ BitVec 64))
(declare-fun c396 () (_ BitVec 64))
(define-fun e397 () Bool (= c395 c396))
(declare-fun c398 () (_ BitVec 64))
(declare-fun c399 () (_ BitVec 64))
(define-fun e400 () Bool (= c398 c399))
(declare-fun c401 () (_ BitVec 64))
(declare-fun c402 () (_ BitVec 64))
(define-fun e403 () Bool (= c401 c402))
(declare-fun c404 () (_ BitVec 64))
(declare-fun c405 () (_ BitVec 64))
(define-fun e406 () Bool (= c404 c405))
(declare-fun c407 () (_ BitVec 64))
(declare-fun c408 () (_ BitVec 64))
(define-fun e409 () Bool (= c407 c408))
(declare-fun c410 () (_ BitVec 64))
(declare-fun c411 () (_ BitVec 64))
(define-fun e412 () Bool (= c410 c411))
(declare-fun c413 () (_ BitVec 64))
(declare-fun c414 () (_ BitVec 64))
(define-fun e415 () Bool (= c413 c414))
(declare-fun c416 () (_ BitVec 64))
(declare-fun c417 () (_ BitVec 64))
(define-fun e418 () Bool (= c416 c417))
(declare-fun c419 () (_ BitVec 64))
(declare-fun c420 () (_ BitVec 64))
(define-fun e421 () Bool (= c419 c420))
(declare-fun c422 () (_ BitVec 64))
(declare-fun c423 () (_ BitVec 64))
(define-fun e424 () Bool (= c422 c423))
(declare-fun c425 () (_ BitVec 64))
(declare-fun c426 () (_ BitVec 64))
(define-fun e427 () Bool (= c425 c426))
(declare-fun c428 () (_ BitVec 64))
(declare-fun c429 () (_ BitVec 64))
(define-fun e430 () Bool (= c428 c429))
(declare-fun c431 () (_ BitVec 64))
(declare-fun c432 () (_ BitVec 64))
(define-fun e433 () Bool (= c431 c432))
(declare-fun c434 () (_ BitVec 64))
(declare-fun c435 () (_ BitVec 64))
(define-fun e436 () Bool (= c434 c435))
(declare-fun c437 () (_ BitVec 64))
(declare-fun c438 () (_ BitVec 64))
(define-fun e439 () Bool (= c437 c438))
(declare-fun c440 () (_ BitVec 64))
(declare-fun c441 () (_ BitVec 64))
(define-fun e442 () Bool (= c440 c441))
(declare-fun c443 () (_ BitVec 64))
(declare-fun c444 () (_ BitVec 64))
(define-fun e445 () Bool (= c443 c444))
(declare-fun c446 () (_ BitVec 64))
(declare-fun c447 () (_ BitVec 64))
(define-fun e448 () Bool (= c446 c447))
(declare-fun c449 () (_ BitVec 64))
(declare-fun c450 () (_ BitVec 64))
(define-fun e451 () Bool (= c449 c450))
(declare-fun c452 () (_ BitVec 64))
(declare-fun c453 () (_ BitVec 64))
(define-fun e454 () Bool (= c452 c453))
(declare-fun c455 () (_ BitVec 64))
(declare-fun c456 () (_ BitVec 64))
(define-fun e457 () Bool (= c455 c456))
(declare-fun c458 () (_ BitVec 64))
(declare-fun c459 () (_ BitVec 64))
(define-fun e460 () Bool (= c458 c459))
(declare-fun c461 () (_ BitVec 64))
(declare-fun c462 () (_ BitVec 64))
(define-fun e463 () Bool (= c461 c462))
(define-fun e464 () Bool (and e340 e343 e346 e349 e352 e355 e358 e361 e364 e367 e370 e373 e376 e379 e382 e385 e388 e391 e394 e397 e400 e403 e406 e409 e412 e415 e418 e421 e424 e427 e430 e433 e436 e439 e442 e445 e448 e451 e454 e457 e460 e463))
(define-fun e465 () Bool (or c0 e233))
(define-fun e467 ((c466 (_ BitVec 64))) (_ BitVec 64) (c239 c466))
(define-fun e468 ((c466 (_ BitVec 64))) (_ BitVec 64) (c248 c466))
(define-fun e469 ((c466 (_ BitVec 64))) Bool (= (e467 c466) (e468 c466)))
(define-fun e470 ((c466 (_ BitVec 64))) (_ BitVec 64) (_ bv1024 64))
(define-fun e471 ((c466 (_ BitVec 64))) Bool (bvult c466 (e470 c466)))
(define-fun e472 ((c466 (_ BitVec 64))) Bool (not (e471 c466)))
(define-fun e473 ((c466 (_ BitVec 64))) Bool (or (e469 c466) (e472 c466)))
(define-fun e474 () Bool (forall ((c466 (_ BitVec 64))) (e473 c466)))
(define-fun e475 ((c466 (_ BitVec 64))) (_ BitVec 64) (c265 c466))
(define-fun e476 ((c466 (_ BitVec 64))) (_ BitVec 64) (c273 c466))
(define-fun e477 ((c466 (_ BitVec 64))) Bool (= (e475 c466) (e476 c466)))
(define-fun e478 ((c466 (_ BitVec 64))) Bool (or (e472 c466) (e477 c466)))
(define-fun e479 () Bool (forall ((c466 (_ BitVec 64))) (e478 c466)))
(define-fun e481 ((c466 (_ BitVec 64)) (c480 (_ BitVec 64))) (_ BitVec 64) (c243 c466 c480))
(define-fun e482 ((c466 (_ BitVec 64)) (c480 (_ BitVec 64))) (_ BitVec 64) (c252 c466 c480))
(define-fun e483 ((c466 (_ BitVec 64)) (c480 (_ BitVec 64))) Bool (= (e481 c466 c480) (e482 c466 c480)))
(define-fun e484 ((c466 (_ BitVec 64)) (c480 (_ BitVec 64))) (_ BitVec 64) (c305 c466 c480))
(define-fun e485 ((c466 (_ BitVec 64)) (c480 (_ BitVec 64))) (_ BitVec 64) (c307 c466 c480))
(define-fun e486 ((c466 (_ BitVec 64)) (c480 (_ BitVec 64))) Bool (= (e484 c466 c480) (e485 c466 c480)))
(define-fun e487 ((c466 (_ BitVec 64)) (c480 (_ BitVec 64))) Bool (c310 c466 c480))
(define-fun e488 ((c466 (_ BitVec 64)) (c480 (_ BitVec 64))) Bool (c312 c466 c480))
(define-fun e489 ((c466 (_ BitVec 64)) (c480 (_ BitVec 64))) Bool (and (=> (e487 c466 c480) (e488 c466 c480)) (=> (e488 c466 c480) (e487 c466 c480))))
(define-fun e490 ((c466 (_ BitVec 64)) (c480 (_ BitVec 64))) Bool (c315 c466 c480))
(define-fun e491 ((c466 (_ BitVec 64)) (c480 (_ BitVec 64))) Bool (c317 c466 c480))
(define-fun e492 ((c466 (_ BitVec 64)) (c480 (_ BitVec 64))) Bool (and (=> (e490 c466 c480) (e491 c466 c480)) (=> (e491 c466 c480) (e490 c466 c480))))
(define-fun e493 ((c466 (_ BitVec 64)) (c480 (_ BitVec 64))) (_ BitVec 64) (c320 c466 c480))
(define-fun e494 ((c466 (_ BitVec 64)) (c480 (_ BitVec 64))) (_ BitVec 64) (c322 c466 c480))
(define-fun e495 ((c466 (_ BitVec 64)) (c480 (_ BitVec 64))) Bool (= (e493 c466 c480) (e494 c466 c480)))
(define-fun e496 ((c466 (_ BitVec 64)) (c480 (_ BitVec 64))) Bool (and (e483 c466 c480) (e486 c466 c480) (e489 c466 c480) (e492 c466 c480) (e495 c466 c480)))
(define-fun e497 ((c466 (_ BitVec 64)) (c480 (_ BitVec 64))) (_ BitVec 64) (_ bv1024 64))
(define-fun e498 ((c466 (_ BitVec 64)) (c480 (_ BitVec 64))) Bool (bvult c466 (e497 c466 c480)))
(define-fun e499 ((c466 (_ BitVec 64)) (c480 (_ BitVec 64))) (_ BitVec 64) (_ bv512 64))
(define-fun e500 ((c466 (_ BitVec 64)) (c480 (_ BitVec 64))) Bool (bvult c480 (e499 c466 c480)))
(define-fun e501 ((c466 (_ BitVec 64)) (c480 (_ BitVec 64))) (_ BitVec 64) (_ bv3 64))
(define-fun e502 ((c466 (_ BitVec 64)) (c480 (_ BitVec 64))) (_ BitVec 64) (c239 c466))
(define-fun e503 ((c466 (_ BitVec 64)) (c480 (_ BitVec 64))) Bool (= (e501 c466 c480) (e502 c466 c480)))
(define-fun e504 ((c466 (_ BitVec 64)) (c480 (_ BitVec 64))) Bool (and (e498 c466 c480) (e503 c466 c480)))
(define-fun e505 ((c466 (_ BitVec 64)) (c480 (_ BitVec 64))) (_ BitVec 64) (_ bv4 64))
(define-fun e506 ((c466 (_ BitVec 64)) (c480 (_ BitVec 64))) Bool (= (e505 c466 c480) (e502 c466 c480)))
(define-fun e507 ((c466 (_ BitVec 64)) (c480 (_ BitVec 64))) Bool (and (e498 c466 c480) (e506 c466 c480)))
(define-fun e508 ((c466 (_ BitVec 64)) (c480 (_ BitVec 64))) (_ BitVec 64) (_ bv5 64))
(define-fun e509 ((c466 (_ BitVec 64)) (c480 (_ BitVec 64))) Bool (= (e508 c466 c480) (e502 c466 c480)))
(define-fun e510 ((c466 (_ BitVec 64)) (c480 (_ BitVec 64))) Bool (and (e498 c466 c480) (e509 c466 c480)))
(define-fun e511 ((c466 (_ BitVec 64)) (c480 (_ BitVec 64))) Bool (or (e504 c466 c480) (e507 c466 c480) (e510 c466 c480)))
(define-fun e512 ((c466 (_ BitVec 64)) (c480 (_ BitVec 64))) Bool (and (e498 c466 c480) (e500 c466 c480) (e511 c466 c480)))
(define-fun e513 ((c466 (_ BitVec 64)) (c480 (_ BitVec 64))) Bool (not (e512 c466 c480)))
(define-fun e514 ((c466 (_ BitVec 64)) (c480 (_ BitVec 64))) Bool (or (e496 c466 c480) (e513 c466 c480)))
(define-fun e515 () Bool (forall ((c466 (_ BitVec 64)) (c480 (_ BitVec 64))) (e514 c466 c480)))
(define-fun e516 ((c466 (_ BitVec 64))) (_ BitVec 64) (_ bv2 64))
(define-fun e517 ((c466 (_ BitVec 64))) (_ BitVec 64) (c243 c466 (e516 c466)))
(define-fun e518 ((c466 (_ BitVec 64))) (_ BitVec 64) (c252 c466 (e516 c466)))
(define-fun e519 ((c466 (_ BitVec 64))) Bool (= (e517 c466) (e518 c466)))
(define-fun e520 ((c466 (_ BitVec 64))) (_ BitVec 64) (_ bv1 64))
(define-fun e521 ((c466 (_ BitVec 64))) (_ BitVec 64) (c243 c466 (e520 c466)))
(define-fun e522 ((c466 (_ BitVec 64))) (_ BitVec 64) (c252 c466 (e520 c466)))
(define-fun e523 ((c466 (_ BitVec 64))) Bool (= (e521 c466) (e522 c466)))
(define-fun e524 ((c466 (_ BitVec 64))) (_ BitVec 64) (_ bv0 64))
(define-fun e525 ((c466 (_ BitVec 64))) (_ BitVec 64) (c243 c466 (e524 c466)))
(define-fun e526 ((c466 (_ BitVec 64))) (_ BitVec 64) (c252 c466 (e524 c466)))
(define-fun e527 ((c466 (_ BitVec 64))) Bool (= (e525 c466) (e526 c466)))
(define-fun e528 ((c466 (_ BitVec 64))) Bool (and (e519 c466) (e523 c466) (e527 c466)))
(define-fun e529 ((c466 (_ BitVec 64))) Bool (= (e520 c466) (e467 c466)))
(define-fun e530 ((c466 (_ BitVec 64))) Bool (and (e471 c466) (e529 c466)))
(define-fun e531 ((c466 (_ BitVec 64))) Bool (not (e530 c466)))
(define-fun e532 ((c466 (_ BitVec 64))) Bool (or (e528 c466) (e531 c466)))
(define-fun e533 () Bool (forall ((c466 (_ BitVec 64))) (e532 c466)))
(define-fun e534 ((c466 (_ BitVec 64))) Bool (= (e516 c466) (e467 c466)))
(define-fun e535 ((c466 (_ BitVec 64))) Bool (and (e471 c466) (e534 c466)))
(define-fun e536 ((c466 (_ BitVec 64))) Bool (not (e535 c466)))
(define-fun e537 ((c466 (_ BitVec 64))) Bool (or (e527 c466) (e536 c466)))
(define-fun e538 () Bool (forall ((c466 (_ BitVec 64))) (e537 c466)))
(define-fun e539 () Bool (and e99 e106 e69 e101 e464 e465 e474 e479 e515 e533 e538))
(define-fun e540 () Bool (and e53 e539))
(define-fun e541 () Bool (or e337 e540))
(define-fun e542 () Bool (and e50 e541))
(define-fun e543 () Bool (and e49 e539))
(define-fun e544 () Bool (or e542 e543))
(define-fun e545 () Bool (not e544))
(define-fun e546 () Bool (or e84 e545))
(define-fun e547 () Bool (not e546))
(define-fun e548 () Bool (not e63))
(define-fun e549 () Bool (or e65 e547 e548))
(assert e549)
(check-sat)
